536,301
681,-44
681,106
814,338
576,261
601,366
575,300
463,564
713,613
602,909
727,548
814,338
1162,161
823,452
947,448
981,406
871,32
681,106
727,702
727,548
729,371
707,393
570,748
580,719
947,448
